proyfinal/src/viki/013/experimentInOfficeAgust.take6.output/a55b6d40-97d3-47b0-a3af-2669856d54f3.als.dat
{'cnf.clauses': '161767',
 'cnf.totvars': '87638',
 'conflict literals': '1291444',
 'conflicts': '19684',
 'decisions': '58443',
 'memused.mb': '26.26',
 'outcome': 'INDET',
 'propagations': '25392394',
 'restarts': '67',
 'solver.msecs': 2425,
 'stats_inv': {'cnf.clauses': '118081',
               'cnf.totvars': '69608',
               'conflict literals': '58',
               'conflicts': '16',
               'decisions': '33907',
               'memused.mb': '16.49',
               'outcome': 'SAT',
               'propagations': '69650',
               'restarts': '1',
               'solver.msecs': 32,
               'task.output': "Reading from standard input... Use '--help' for "
                              'help.\n'
                              '============================[ Problem '
                              'Statistics ]=============================\n'
                              '|                                                                             '
                              '|\n'
                              '|  Number of variables:         '
                              '69608                                         '
                              '|\n'
                              '|  Number of clauses:          '
                              '118081                                         '
                              '|\n'
                              '|  Parse time:                   0.02 '
                              's                                       |\n'
                              '|                                                                             '
                              '|\n'
                              '============================[ Search Statistics '
                              ']==============================\n'
                              '| Conflicts |          ORIGINAL         '
                              '|          LEARNT          | Progress |\n'
                              '|           |    Vars  Clauses Literals |    '
                              'Limit  Clauses Lit/Cl |          |\n'
                              '===============================================================================\n'
                              '===============================================================================\n'
                              'restarts              : 1\n'
                              'conflicts             : 16             (490 '
                              '/sec)\n'
                              'decisions             : 33907          (0.00 % '
                              'random) (1039295 /sec)\n'
                              'propagations          : 69650          (2134866 '
                              '/sec)\n'
                              'conflict literals     : 58             (0.00 % '
                              'deleted)\n'
                              'Memory used           : 16.49 MB\n'
                              'CPU time              : 0.032625 s\n'
                              '\n'
                              'SATISFIABLE\n'},
 'task.msecs': 5019}
