proyfinal/src/viki/013/experimentInOfficeAgust.take6.output/a55b6d40-97d3-47b0-a3af-2669856d54f3.als.out
Reading from standard input... Use '--help' for help.
============================[ Problem Statistics ]=============================
|                                                                             |
|  Number of variables:         87638                                         |
|  Number of clauses:          161767                                         |
|  Parse time:                   0.03 s                                       |
|                                                                             |
============================[ Search Statistics ]==============================
| Conflicts |          ORIGINAL         |          LEARNT          | Progress |
|           |    Vars  Clauses Literals |    Limit  Clauses Lit/Cl |          |
===============================================================================
|       100 |   63208   108243   270328 |    39689      100      9 | 27.876 % |
|       250 |   63208   108243   270328 |    43658      250     21 | 27.876 % |
|       475 |   63208   108243   270328 |    48023      475     34 | 27.876 % |
|       812 |   63186   108151   270117 |    52826      811     54 | 27.901 % |
|      1318 |   63160   108043   269870 |    58108     1316     53 | 27.931 % |
|      2077 |   63160   108043   269870 |    63919     2075     48 | 27.931 % |
|      3216 |   63159   107999   269780 |    70311     3211     70 | 27.932 % |
|      4924 |   63159   107999   269780 |    77342     4919     77 | 27.932 % |
|      7486 |   54826    82292   205895 |    85077     7003     75 | 37.440 % |
|     11330 |   54698    81926   205042 |    93584    10826     73 | 37.586 % |
|     17096 |   54585    81347   203695 |   102943    15961     67 | 37.715 % |
===============================================================================
restarts              : 67
conflicts             : 19684          (8115 /sec)
decisions             : 58443          (0.00 % random) (24093 /sec)
propagations          : 25392394       (10468025 /sec)
conflict literals     : 1291444        (48.82 % deleted)
Memory used           : 26.26 MB
CPU time              : 2.42571 s

INDETERMINATE
